(declare-fun temp914_1 () (_ BitVec 64))
(declare-fun var79569 () (_ BitVec 64))
(declare-fun k!0 () Bool)
(declare-fun ARGNAME_input1_NAMEEND_DIM () (_ BitVec 64))
(declare-fun ARGNAME_input2_NAMEEND_DIM () (_ BitVec 64))
(declare-fun temp914_2 () (_ BitVec 64))
(declare-fun var79623 () (_ BitVec 64))
(declare-fun var204300 () (_ BitVec 64))
(declare-fun temp914_4 () (_ BitVec 64))
(declare-fun temp914_3 () (_ BitVec 64))
(declare-fun var267251 () (_ BitVec 64))
(declare-fun var267252 () (_ BitVec 64))
(declare-fun temp914_5 () (_ BitVec 64))
(declare-fun temp914_6 () (_ BitVec 64))
(declare-fun var336917 () (_ BitVec 64))
(declare-fun var402464 () (_ BitVec 64))
(declare-fun var204318 () (_ BitVec 64))
(declare-fun temp914_7 () (_ BitVec 64))
(declare-fun var79724 () (_ BitVec 64))
(declare-fun temp914_8 () (_ BitVec 64))
(declare-fun temp914_9 () (_ BitVec 64))
(declare-fun ARGNAME_input1_NAMEEND_DIMSIZE
             ()
             (Array (_ BitVec 64) (_ BitVec 64)))
(declare-fun temp914_10 () (_ BitVec 64))
(declare-fun temp914_11 () (_ BitVec 64))
(declare-fun temp914_12 () (_ BitVec 64))
(declare-fun temp914_13 () (_ BitVec 64))
(declare-fun temp914_14 () (_ BitVec 64))
(declare-fun temp914_15 () (_ BitVec 64))
(declare-fun temp914_16 () (_ BitVec 64))
(declare-fun temp914_17 () (_ BitVec 64))
(declare-fun temp914_18 () (_ BitVec 64))
(declare-fun temp914_19 () (_ BitVec 64))
(declare-fun temp914_20 () (_ BitVec 64))
(declare-fun temp914_21 () (_ BitVec 64))
(declare-fun temp914_22 () (_ BitVec 64))
(declare-fun temp914_23 () (_ BitVec 64))
(declare-fun temp914_24 () (_ BitVec 64))
(declare-fun temp914_25 () (_ BitVec 64))
(declare-fun temp914_26 () (_ BitVec 64))
(declare-fun temp914_27 () (_ BitVec 64))
(declare-fun temp914_28 () (_ BitVec 64))
(declare-fun var79725 () (_ BitVec 64))
(declare-fun temp914_29 () (_ BitVec 64))
(declare-fun var66592 () (_ BitVec 64))
(declare-fun temp914_30 () (_ BitVec 64))
(declare-fun temp914_31 () (_ BitVec 64))
(declare-fun ARGNAME_weight_NAMEEND_DIMSIZE
             ()
             (Array (_ BitVec 64) (_ BitVec 64)))
(declare-fun temp914_32 () (_ BitVec 64))
(declare-fun temp914_33 () (_ BitVec 64))
(declare-fun temp914_34 () (_ BitVec 64))
(declare-fun temp914_35 () (_ BitVec 64))
(declare-fun temp914_36 () (_ BitVec 64))
(declare-fun temp914_37 () (_ BitVec 64))
(declare-fun temp914_38 () (_ BitVec 64))
(declare-fun temp914_39 () (_ BitVec 64))
(declare-fun temp914_40 () (_ BitVec 64))
(declare-fun temp914_41 () (_ BitVec 64))
(declare-fun temp914_42 () (_ BitVec 64))
(declare-fun temp914_43 () (_ BitVec 64))
(declare-fun temp914_44 () (_ BitVec 64))
(declare-fun temp914_45 () (_ BitVec 64))
(declare-fun temp914_46 () (_ BitVec 64))
(declare-fun temp914_47 () (_ BitVec 64))
(declare-fun temp914_48 () (_ BitVec 64))
(declare-fun ARGNAME_weight_NAMEEND_DIM () (_ BitVec 64))
(declare-fun temp914_49 () (_ BitVec 64))
(declare-fun temp914_50 () (_ BitVec 64))
(declare-fun var79727 () (_ BitVec 64))
(declare-fun var79728 () (_ BitVec 64))
(declare-fun temp914_51 () (_ BitVec 64))
(declare-fun temp914_52 () (_ BitVec 64))
(declare-fun var79776 () (_ BitVec 64))
(declare-fun temp914_53 () (_ BitVec 64))
(declare-fun temp914_54 () (_ BitVec 64))
(declare-fun ARGNAME_input2_NAMEEND_DIMSIZE
             ()
             (Array (_ BitVec 64) (_ BitVec 64)))
(declare-fun temp914_55 () (_ BitVec 64))
(declare-fun temp914_56 () (_ BitVec 64))
(declare-fun temp914_57 () (_ BitVec 64))
(declare-fun temp914_58 () (_ BitVec 64))
(declare-fun temp914_59 () (_ BitVec 64))
(declare-fun temp914_60 () (_ BitVec 64))
(declare-fun temp914_61 () (_ BitVec 64))
(declare-fun temp914_62 () (_ BitVec 64))
(declare-fun temp914_63 () (_ BitVec 64))
(declare-fun temp914_64 () (_ BitVec 64))
(declare-fun temp914_65 () (_ BitVec 64))
(declare-fun temp914_66 () (_ BitVec 64))
(declare-fun temp914_67 () (_ BitVec 64))
(declare-fun temp914_68 () (_ BitVec 64))
(declare-fun temp914_69 () (_ BitVec 64))
(declare-fun temp914_70 () (_ BitVec 64))
(declare-fun temp914_71 () (_ BitVec 64))
(declare-fun temp914_72 () (_ BitVec 64))
(declare-fun temp914_73 () (_ BitVec 64))
(declare-fun var79777 () (_ BitVec 64))
(declare-fun temp914_74 () (_ BitVec 64))
(declare-fun var66492 () (_ BitVec 64))
(declare-fun temp914_75 () (_ BitVec 64))
(declare-fun temp914_76 () (_ BitVec 64))
(declare-fun temp914_77 () (_ BitVec 64))
(declare-fun var79778 () (_ BitVec 64))
(declare-fun var79779 () (_ BitVec 64))
(declare-fun temp914_78 () (_ BitVec 64))
(declare-fun temp914_79 () (_ BitVec 64))
(declare-fun var65961 () (_ BitVec 64))
(declare-fun temp914_80 () (_ BitVec 64))
(declare-fun temp914_81 () (_ BitVec 64))
(declare-fun ARGNAME_bias_NAMEEND_DIMSIZE
             ()
             (Array (_ BitVec 64) (_ BitVec 64)))
(declare-fun temp914_82 () (_ BitVec 64))
(declare-fun temp914_83 () (_ BitVec 64))
(declare-fun temp914_84 () (_ BitVec 64))
(declare-fun temp914_85 () (_ BitVec 64))
(declare-fun temp914_86 () (_ BitVec 64))
(declare-fun temp914_87 () (_ BitVec 64))
(declare-fun temp914_88 () (_ BitVec 64))
(declare-fun temp914_89 () (_ BitVec 64))
(declare-fun temp914_90 () (_ BitVec 64))
(declare-fun temp914_91 () (_ BitVec 64))
(declare-fun temp914_92 () (_ BitVec 64))
(declare-fun temp914_93 () (_ BitVec 64))
(declare-fun temp914_94 () (_ BitVec 64))
(declare-fun temp914_95 () (_ BitVec 64))
(declare-fun temp914_96 () (_ BitVec 64))
(declare-fun temp914_97 () (_ BitVec 64))
(declare-fun temp914_98 () (_ BitVec 64))
(declare-fun ARGNAME_bias_NAMEEND_DIM () (_ BitVec 64))
(declare-fun temp914_99 () (_ BitVec 64))
(declare-fun temp914_100 () (_ BitVec 64))
(declare-fun var79827 () (_ BitVec 64))
(declare-fun temp914_101 () (_ BitVec 64))
(declare-fun temp914_102 () (_ BitVec 64))
(declare-fun temp914_103 () (_ BitVec 64))
(declare-fun temp914_104 () (_ BitVec 64))
(declare-fun var79828 () (_ BitVec 64))
(declare-fun var79829 () (_ BitVec 64))
(declare-fun temp914_105 () (_ BitVec 64))
(declare-fun temp914_106 () (_ BitVec 64))
(declare-fun temp914_107 () (_ BitVec 64))
(declare-fun temp914_108 () (_ BitVec 64))
(declare-fun temp914_109 () (_ BitVec 64))
(declare-fun var79903 () (_ BitVec 64))
(declare-fun temp914_110 () (_ BitVec 64))
(declare-fun var3023325 () (_ BitVec 64))
(declare-fun temp914_112 () (_ BitVec 64))
(declare-fun temp914_111 () (_ BitVec 64))
(declare-fun temp914_113 () (_ BitVec 64))
(declare-fun var67207 () (_ BitVec 64))
(declare-fun temp914_114 () (_ BitVec 64))
(declare-fun temp914_115 () (_ BitVec 64))
(declare-fun temp914_116 () (_ BitVec 64))
(declare-fun var79915 () (_ BitVec 64))
(declare-fun temp914_117 () (_ BitVec 64))
(declare-fun temp914_118 () (_ BitVec 64))
(declare-fun temp914_119 () (_ BitVec 64))
(declare-fun temp914_120 () (_ BitVec 64))
(declare-fun var79938 () (_ BitVec 64))
(declare-fun temp914_122 () (_ BitVec 64))
(declare-fun temp914_121 () (_ BitVec 64))
(declare-fun temp914_124 () (_ BitVec 64))
(declare-fun temp914_123 () (_ BitVec 64))
(declare-fun var4533243 () (_ BitVec 64))
(declare-fun temp914_125 () (_ BitVec 64))
(declare-fun var4533374 () (_ BitVec 64))
(declare-fun temp914_127 () (_ BitVec 64))
(declare-fun temp914_126 () (_ BitVec 64))
(declare-fun temp914_128 () (_ BitVec 64))
(declare-fun var5318818 () (_ BitVec 64))
(declare-fun temp914_129 () (_ BitVec 64))
(declare-fun var5973063 () (_ BitVec 64))
(declare-fun temp914_131 () (_ BitVec 64))
(declare-fun temp914_130 () (_ BitVec 64))
(declare-fun temp914_132 () (_ BitVec 64))
(declare-fun var6957218 () (_ BitVec 64))
(declare-fun temp914_133 () (_ BitVec 64))
(declare-fun var7611463 () (_ BitVec 64))
(declare-fun temp914_135 () (_ BitVec 64))
(declare-fun temp914_134 () (_ BitVec 64))
(declare-fun temp914_136 () (_ BitVec 64))
(declare-fun var8595618 () (_ BitVec 64))
(declare-fun temp914_137 () (_ BitVec 64))
(declare-fun var9249863 () (_ BitVec 64))
(declare-fun temp914_139 () (_ BitVec 64))
(declare-fun temp914_138 () (_ BitVec 64))
(declare-fun temp914_140 () (_ BitVec 64))
(declare-fun var10234018 () (_ BitVec 64))
(declare-fun temp914_141 () (_ BitVec 64))
(declare-fun var10888263 () (_ BitVec 64))
(declare-fun temp914_143 () (_ BitVec 64))
(declare-fun temp914_142 () (_ BitVec 64))
(declare-fun temp914_144 () (_ BitVec 64))
(declare-fun var11871253 () (_ BitVec 64))
(declare-fun var11936800 () (_ BitVec 64))
(declare-fun temp914_145 () (_ BitVec 64))
(declare-fun var4533542 () (_ BitVec 64))
(declare-fun temp914_146 () (_ BitVec 64))
(declare-fun var4533583 () (_ BitVec 64))
(declare-fun var4533617 () (_ BitVec 64))
(declare-fun var4533671 () (_ BitVec 64))
(declare-fun var15081033 () (_ BitVec 64))
(declare-fun var15408713 () (_ BitVec 64))
(declare-fun var15736393 () (_ BitVec 64))
(declare-fun temp914_147 () (_ BitVec 64))
(declare-fun ARGNAME_weight_NAMEEND_NUMELEMENT () (_ BitVec 64))
(declare-fun var4533720 () (_ BitVec 64))
(declare-fun temp914_148 () (_ BitVec 64))
(declare-fun var16850505 () (_ BitVec 64))
(declare-fun temp914_150 () (_ BitVec 64))
(declare-fun temp914_149 () (_ BitVec 64))
(declare-fun temp914_151 () (_ BitVec 64))
(declare-fun var17310741 () (_ BitVec 64))
(declare-fun var17376288 () (_ BitVec 64))
(declare-fun var17772587 () (_ BitVec 64))
(declare-fun temp914_152 () (_ BitVec 64))
(declare-fun var17772589 () (_ BitVec 64))
(declare-fun var17838123 () (_ BitVec 64))
(declare-fun temp914_153 () (_ BitVec 64))
(declare-fun var17838125 () (_ BitVec 64))
(declare-fun var18362411 () (_ BitVec 64))
(declare-fun temp914_154 () (_ BitVec 64))
(declare-fun var18362413 () (_ BitVec 64))
(declare-fun temp914_155 () (_ BitVec 64))
(declare-fun var19735623 () (_ BitVec 64))
(declare-fun temp914_157 () (_ BitVec 64))
(declare-fun temp914_156 () (_ BitVec 64))
(declare-fun temp914_158 () (_ BitVec 64))
(declare-fun var20522005 () (_ BitVec 64))
(declare-fun temp914_159 () (_ BitVec 64))
(declare-fun var18683626 () (_ BitVec 64))
(declare-fun var18683596 () (_ BitVec 64))
(declare-fun var18683595 () (_ BitVec 64))
(declare-fun temp914_161 () (_ BitVec 64))
(declare-fun temp914_160 () (_ BitVec 64))
(declare-fun temp914_162 () (_ BitVec 64))
(declare-fun var18684104 () (_ BitVec 64))
(declare-fun temp914_163 () (_ BitVec 64))
(declare-fun var18684038 () (_ BitVec 64))
(declare-fun var18684037 () (_ BitVec 64))
(declare-fun var18684116 () (_ BitVec 64))
(declare-fun var18684135 () (_ BitVec 64))
(declare-fun var18684170 () (_ BitVec 64))
(declare-fun temp914_164 () (_ BitVec 64))
(declare-fun var18684171 () (_ BitVec 64))
(declare-fun temp914_166 () (_ BitVec 64))
(declare-fun temp914_165 () (_ BitVec 64))
(declare-fun temp914_168 () (_ BitVec 64))
(declare-fun temp914_167 () (_ BitVec 64))
(assert (= var79569
   (ite (= ARGNAME_input1_NAMEEND_DIM ARGNAME_input2_NAMEEND_DIM)
        #x0000000000000001
        #x0000000000000000)))
(assert (= temp914_1 #x0000000000000001))
(assert (= var79569 temp914_1))
(assert (= temp914_2 #xffffffffffffffff))
(assert (= var79623 (bvadd ARGNAME_input1_NAMEEND_DIM temp914_2)))
(assert (= var204300 var79623))
(assert (= temp914_4 #x0000000000000000))
(assert (= temp914_3 temp914_4))
(assert (= var267251 var204300))
(assert (= var267252
   (ite (bvslt temp914_3 var267251) #x0000000000000001 #x0000000000000000)))
(assert (= temp914_5 (ite (= var267252 #x0000000000000001) var204300 temp914_3)))
(assert (= temp914_6 #x0000000000000000))
(assert (= var336917 temp914_6))
(assert (= var402464 var336917))
(assert (= var204318 var402464))
(assert (= temp914_7 #xffffffffffffffff))
(assert (= var79724 (bvadd ARGNAME_input1_NAMEEND_DIM temp914_7)))
(assert (= temp914_8 #x0000000000000000))
(assert (= temp914_9 temp914_8))
(assert (= temp914_10 (select ARGNAME_input1_NAMEEND_DIMSIZE temp914_9)))
(assert (= temp914_11 #x0000000000000001))
(assert (= temp914_12 temp914_11))
(assert (= temp914_13 (select ARGNAME_input1_NAMEEND_DIMSIZE temp914_12)))
(assert (= temp914_14 #x0000000000000002))
(assert (= temp914_15 temp914_14))
(assert (= temp914_16 (select ARGNAME_input1_NAMEEND_DIMSIZE temp914_15)))
(assert (= temp914_17 #x0000000000000003))
(assert (= temp914_18 temp914_17))
(assert (= temp914_19 (select ARGNAME_input1_NAMEEND_DIMSIZE temp914_18)))
(assert (= temp914_20 #x0000000000000004))
(assert (= temp914_21 temp914_20))
(assert (= temp914_22 (select ARGNAME_input1_NAMEEND_DIMSIZE temp914_21)))
(assert (= temp914_23 #x0000000000000005))
(assert (= temp914_24 temp914_23))
(assert (= temp914_25 (select ARGNAME_input1_NAMEEND_DIMSIZE temp914_24)))
(assert (= temp914_26 #x0000000000000000))
(assert (= temp914_27
   (ite (bvslt var79724 temp914_26)
        (bvadd ARGNAME_input1_NAMEEND_DIM var79724)
        var79724)))
(assert (= temp914_28 (select ARGNAME_input1_NAMEEND_DIMSIZE temp914_27)))
(assert (= var79725 temp914_28))
(assert (bvslt (ite (bvslt var79724 temp914_26)
            (bvadd ARGNAME_input1_NAMEEND_DIM var79724)
            var79724)
       ARGNAME_input1_NAMEEND_DIM))
(assert (= temp914_29 #x0000000000000001))
(assert (= var66592 temp914_29))
(assert (= temp914_30 #x0000000000000000))
(assert (= temp914_31 temp914_30))
(assert (= temp914_32 (select ARGNAME_weight_NAMEEND_DIMSIZE temp914_31)))
(assert (= temp914_33 #x0000000000000001))
(assert (= temp914_34 temp914_33))
(assert (= temp914_35 (select ARGNAME_weight_NAMEEND_DIMSIZE temp914_34)))
(assert (= temp914_36 #x0000000000000002))
(assert (= temp914_37 temp914_36))
(assert (= temp914_38 (select ARGNAME_weight_NAMEEND_DIMSIZE temp914_37)))
(assert (= temp914_39 #x0000000000000003))
(assert (= temp914_40 temp914_39))
(assert (= temp914_41 (select ARGNAME_weight_NAMEEND_DIMSIZE temp914_40)))
(assert (= temp914_42 #x0000000000000004))
(assert (= temp914_43 temp914_42))
(assert (= temp914_44 (select ARGNAME_weight_NAMEEND_DIMSIZE temp914_43)))
(assert (= temp914_45 #x0000000000000005))
(assert (= temp914_46 temp914_45))
(assert (= temp914_47 (select ARGNAME_weight_NAMEEND_DIMSIZE temp914_46)))
(assert (= temp914_48 #x0000000000000000))
(assert (= temp914_49
   (ite (bvslt var66592 temp914_48)
        (bvadd ARGNAME_weight_NAMEEND_DIM var66592)
        var66592)))
(assert (= temp914_50 (select ARGNAME_weight_NAMEEND_DIMSIZE temp914_49)))
(assert (= var79727 temp914_50))
(assert (bvslt (ite (bvslt var66592 temp914_48)
            (bvadd ARGNAME_weight_NAMEEND_DIM var66592)
            var66592)
       ARGNAME_weight_NAMEEND_DIM))
(assert (= var79728 (ite (= var79725 var79727) #x0000000000000001 #x0000000000000000)))
(assert (= temp914_51 #x0000000000000001))
(assert (= var79728 temp914_51))
(assert (= temp914_52 #xffffffffffffffff))
(assert (= var79776 (bvadd ARGNAME_input2_NAMEEND_DIM temp914_52)))
(assert (= temp914_53 #x0000000000000000))
(assert (= temp914_54 temp914_53))
(assert (= temp914_55 (select ARGNAME_input2_NAMEEND_DIMSIZE temp914_54)))
(assert (= temp914_56 #x0000000000000001))
(assert (= temp914_57 temp914_56))
(assert (= temp914_58 (select ARGNAME_input2_NAMEEND_DIMSIZE temp914_57)))
(assert (= temp914_59 #x0000000000000002))
(assert (= temp914_60 temp914_59))
(assert (= temp914_61 (select ARGNAME_input2_NAMEEND_DIMSIZE temp914_60)))
(assert (= temp914_62 #x0000000000000003))
(assert (= temp914_63 temp914_62))
(assert (= temp914_64 (select ARGNAME_input2_NAMEEND_DIMSIZE temp914_63)))
(assert (= temp914_65 #x0000000000000004))
(assert (= temp914_66 temp914_65))
(assert (= temp914_67 (select ARGNAME_input2_NAMEEND_DIMSIZE temp914_66)))
(assert (= temp914_68 #x0000000000000005))
(assert (= temp914_69 temp914_68))
(assert (= temp914_70 (select ARGNAME_input2_NAMEEND_DIMSIZE temp914_69)))
(assert (= temp914_71 #x0000000000000000))
(assert (= temp914_72
   (ite (bvslt var79776 temp914_71)
        (bvadd ARGNAME_input2_NAMEEND_DIM var79776)
        var79776)))
(assert (= temp914_73 (select ARGNAME_input2_NAMEEND_DIMSIZE temp914_72)))
(assert (= var79777 temp914_73))
(assert (bvslt (ite (bvslt var79776 temp914_71)
            (bvadd ARGNAME_input2_NAMEEND_DIM var79776)
            var79776)
       ARGNAME_input2_NAMEEND_DIM))
(assert (= temp914_74 #x0000000000000002))
(assert (= var66492 temp914_74))
(assert (= temp914_75 #x0000000000000000))
(assert (= temp914_76
   (ite (bvslt var66492 temp914_75)
        (bvadd ARGNAME_weight_NAMEEND_DIM var66492)
        var66492)))
(assert (= temp914_77 (select ARGNAME_weight_NAMEEND_DIMSIZE temp914_76)))
(assert (= var79778 temp914_77))
(assert (bvslt (ite (bvslt var66492 temp914_75)
            (bvadd ARGNAME_weight_NAMEEND_DIM var66492)
            var66492)
       ARGNAME_weight_NAMEEND_DIM))
(assert (= var79779 (ite (= var79777 var79778) #x0000000000000001 #x0000000000000000)))
(assert (= temp914_78 #x0000000000000001))
(assert (= var79779 temp914_78))
(assert (= temp914_79 #x0000000000000000))
(assert (= var65961 temp914_79))
(assert (= temp914_80 #x0000000000000000))
(assert (= temp914_81 temp914_80))
(assert (= temp914_82 (select ARGNAME_bias_NAMEEND_DIMSIZE temp914_81)))
(assert (= temp914_83 #x0000000000000001))
(assert (= temp914_84 temp914_83))
(assert (= temp914_85 (select ARGNAME_bias_NAMEEND_DIMSIZE temp914_84)))
(assert (= temp914_86 #x0000000000000002))
(assert (= temp914_87 temp914_86))
(assert (= temp914_88 (select ARGNAME_bias_NAMEEND_DIMSIZE temp914_87)))
(assert (= temp914_89 #x0000000000000003))
(assert (= temp914_90 temp914_89))
(assert (= temp914_91 (select ARGNAME_bias_NAMEEND_DIMSIZE temp914_90)))
(assert (= temp914_92 #x0000000000000004))
(assert (= temp914_93 temp914_92))
(assert (= temp914_94 (select ARGNAME_bias_NAMEEND_DIMSIZE temp914_93)))
(assert (= temp914_95 #x0000000000000005))
(assert (= temp914_96 temp914_95))
(assert (= temp914_97 (select ARGNAME_bias_NAMEEND_DIMSIZE temp914_96)))
(assert (= temp914_98 #x0000000000000000))
(assert (= temp914_99
   (ite (bvslt var65961 temp914_98)
        (bvadd ARGNAME_bias_NAMEEND_DIM var65961)
        var65961)))
(assert (= temp914_100 (select ARGNAME_bias_NAMEEND_DIMSIZE temp914_99)))
(assert (= var79827 temp914_100))
(assert (bvslt (ite (bvslt var65961 temp914_98)
            (bvadd ARGNAME_bias_NAMEEND_DIM var65961)
            var65961)
       ARGNAME_bias_NAMEEND_DIM))
(assert (= temp914_101 #x0000000000000000))
(assert (= var65961 temp914_101))
(assert (= temp914_102 #x0000000000000000))
(assert (= temp914_103
   (ite (bvslt var65961 temp914_102)
        (bvadd ARGNAME_weight_NAMEEND_DIM var65961)
        var65961)))
(assert (= temp914_104 (select ARGNAME_weight_NAMEEND_DIMSIZE temp914_103)))
(assert (= var79828 temp914_104))
(assert (bvslt (ite (bvslt var65961 temp914_102)
            (bvadd ARGNAME_weight_NAMEEND_DIM var65961)
            var65961)
       ARGNAME_weight_NAMEEND_DIM))
(assert (= var79829 (ite (= var79827 var79828) #x0000000000000001 #x0000000000000000)))
(assert (= temp914_105 #x0000000000000001))
(assert (= var79829 temp914_105))
(assert (= temp914_106 #x0000000000000000))
(assert (= var65961 temp914_106))
(assert (= temp914_107 #x0000000000000000))
(assert (= temp914_108
   (ite (bvslt var65961 temp914_107)
        (bvadd ARGNAME_weight_NAMEEND_DIM var65961)
        var65961)))
(assert (= temp914_109 (select ARGNAME_weight_NAMEEND_DIMSIZE temp914_108)))
(assert (= var79903 temp914_109))
(assert (bvslt (ite (bvslt var65961 temp914_107)
            (bvadd ARGNAME_weight_NAMEEND_DIM var65961)
            var65961)
       ARGNAME_weight_NAMEEND_DIM))
(assert (= temp914_110 #x0000000000000001))
(assert (= var3023325 temp914_110))
(assert (= temp914_112 #xffffffffffffffff))
(assert (= temp914_111 temp914_112))
(assert (= temp914_113 #xffffffffffffffff))
(assert (= var67207 temp914_113))
(assert (= temp914_114 #x0000000000000000))
(assert (= temp914_115
   (ite (bvslt var67207 temp914_114)
        (bvadd ARGNAME_input1_NAMEEND_DIM var67207)
        var67207)))
(assert (= temp914_116 (select ARGNAME_input1_NAMEEND_DIMSIZE temp914_115)))
(assert (= var79915 temp914_116))
(assert (bvslt (ite (bvslt var67207 temp914_114)
            (bvadd ARGNAME_input1_NAMEEND_DIM var67207)
            var67207)
       ARGNAME_input1_NAMEEND_DIM))
(assert (= temp914_117 #xffffffffffffffff))
(assert (= var67207 temp914_117))
(assert (= temp914_118 #x0000000000000000))
(assert (= temp914_119
   (ite (bvslt var67207 temp914_118)
        (bvadd ARGNAME_input2_NAMEEND_DIM var67207)
        var67207)))
(assert (= temp914_120 (select ARGNAME_input2_NAMEEND_DIMSIZE temp914_119)))
(assert (= var79938 temp914_120))
(assert (bvslt (ite (bvslt var67207 temp914_118)
            (bvadd ARGNAME_input2_NAMEEND_DIM var67207)
            var67207)
       ARGNAME_input2_NAMEEND_DIM))
(assert (= temp914_122 #x0000000000000003))
(assert (= temp914_121 temp914_122))
(assert (= temp914_124 #x0000000000000003))
(assert (= temp914_123 temp914_124))
(assert (= var4533243 var66592))
(assert (= temp914_125 #x000000000000003f))
(assert (= var4533374 (bvlshr var4533243 temp914_125)))
(assert (= temp914_127 #x0000000000000000))
(assert (= temp914_126 temp914_127))
(assert (= temp914_128 #x0000000000000000))
(assert (= var5318818 temp914_128))
(assert (= temp914_129 #x0000000000000001))
(assert (= var5973063 temp914_129))
(assert (= temp914_131 #x0000000000000000))
(assert (= temp914_130 temp914_131))
(assert (= temp914_132 #x0000000000000000))
(assert (= var6957218 temp914_132))
(assert (= temp914_133 #x0000000000000001))
(assert (= var7611463 temp914_133))
(assert (= temp914_135 #x0000000000000000))
(assert (= temp914_134 temp914_135))
(assert (= temp914_136 #x0000000000000000))
(assert (= var8595618 temp914_136))
(assert (= temp914_137 #x0000000000000001))
(assert (= var9249863 temp914_137))
(assert (= temp914_139 #x0000000000000000))
(assert (= temp914_138 temp914_139))
(assert (= temp914_140 #x0000000000000000))
(assert (= var10234018 temp914_140))
(assert (= temp914_141 #x0000000000000001))
(assert (= var10888263 temp914_141))
(assert (= temp914_143 #x0000000000000000))
(assert (= temp914_142 temp914_143))
(assert (= temp914_144 #x0000000000000000))
(assert (= var11871253 temp914_144))
(assert (= var11936800 var11871253))
(assert (= temp914_145 #xffffffffffffffff))
(assert (= var4533542 temp914_145))
(assert (= temp914_146 #x0000000000000000))
(assert (= var4533583 temp914_146))
(assert (= var4533617 var4533583))
(assert (= var4533671 var4533617))
(assert (= var15081033 var4533243))
(assert (= var15408713 var4533243))
(assert (= var15736393 var4533243))
(assert (= temp914_147 #x0000000000000000))
(assert (= var4533720
   (ite (= ARGNAME_weight_NAMEEND_NUMELEMENT temp914_147)
        #x0000000000000001
        #x0000000000000000)))
(assert (= temp914_148 #x0000000000000000))
(assert (= var4533720 temp914_148))
(assert (= var16850505 var4533243))
(assert (= temp914_150 #x0000000000000000))
(assert (= temp914_149 temp914_150))
(assert (= temp914_151 #x0000000000000000))
(assert (= var17310741 temp914_151))
(assert (= var17376288 var17310741))
(assert (= var17772587 var4533243))
(assert (= temp914_152 #x0000000000000001))
(assert (= var17772589 temp914_152))
(assert (= var17838123 var4533243))
(assert (= temp914_153 #x0000000000000001))
(assert (= var17838125 temp914_153))
(assert (= var18362411 var4533243))
(assert (= temp914_154 #x0000000000000001))
(assert (= var18362413 temp914_154))
(assert (= temp914_155 #x0000000000000001))
(assert (= var19735623 temp914_155))
(assert (= temp914_157 #x0000000000000000))
(assert (= temp914_156 temp914_157))
(assert (= temp914_158 #x0000000000000000))
(assert (= var20522005 temp914_158))
(assert (= temp914_159 #x0000000000000001))
(assert (= var18683626 temp914_159))
(assert (= var18683596 var18683626))
(assert (= var18683595 var18683596))
(assert (= temp914_161 #xffffffffffffffff))
(assert (= temp914_160 temp914_161))
(assert (= temp914_162 #x0000000000000000))
(assert (= var18684104 temp914_162))
(assert (= temp914_163 #x0000000000000001))
(assert (= var18684038 (bvadd var18684104 temp914_163)))
(assert (= var18684037 var18684038))
(assert (= var18684116 var18684037))
(assert (= var18684135 var18684116))
(assert (= var18684170 var18684135))
(assert (= temp914_164 #x0000000000000001))
(assert (= var18684171 (bvadd var18684170 temp914_164)))
(assert (= temp914_166 #x0000000000000003))
(assert (= temp914_165 temp914_166))
(assert (= temp914_168 #x0000000000000003))
(assert (= temp914_167 temp914_168))
(model-add temp914_1 () (_ BitVec 64) #x0000000000000001)
(model-add var79569 () (_ BitVec 64) #x0000000000000001)
(model-del k!0)
(model-add ARGNAME_input1_NAMEEND_DIM
           ()
           (_ BitVec 64)
           (ite k!0
                ARGNAME_input2_NAMEEND_DIM
                (bvnot ARGNAME_input2_NAMEEND_DIM)))




